param target := 7;
set E := 1 2 3 4 5 6 7 8 9 10 11 12 13 14 15 16 17 18 19 20 21 22 23 24 25 26 27 28 29 30 31 32 33 34 35 ;
param weight := 
  1  -31
  2  18
  3  4
  4  -3
  5  -34
  6  23
  7  15
  8  -12
  9  20
  10  11
  11  -24
  12  -8
  13  33
  14  -17
  15  26
  16  6
  17  -16
  18  33
  19  -5
  20  8
  21  -16
  22  33
  23  21
  24  26
  25  -15
  26  11
  27  -26
  28  23
  29  -18
  30  21
  31  -22
  32  -30
  33  -32
  34  -31
  35  -4
;
